
  22   10
  10   10   10   10   10   10   10   10   10   10

   0   0   0   0   0   0   0   0   0   0   0   4 2 3 5 9 
   3   0   0   0   0   0   0   0   0   0  10   5 21 14 13 8 7 
   1   0  10   0   0   0   0   0   0   0   0   1 4 
   4   0   0   0  10   0   0   0   0   0   0   3 13 11 6 
  10   0   0   0   0   0   0   0  10   0   0   3 13 11 6 
   4   0   0  10   0   0   0   0   0   0   0   3 21 12 8 
   1   0   0  10   0   0   0   0   0   0   0   6 19 18 17 16 12 11 
   2   0   0   0   0   0  10   0   0   0   0   5 19 18 16 15 10 
  10  10   0   0   0   0   0   0   0   0   0   3 13 11 10 
   2   0   0   0   0   0   0   0   0  10   0   1 17 
   5   0   0   0   0   0   0  10   0   0   0   1 15 
   8   0   0   0   0   0   0   0  10   0   0   1 20 
   3   0   0   0   0   0   0   0   0  10   0   1 16 
   4   0   0   0   0   0  10   0   0   0   0   1 15 
  10   0   0   0   0   0  10   0   0   0   0   1 22
   1   0   0  10   0   0   0   0   0   0   0   1 22
   8   0   0   0   0   0   0   0   0  10   0   1 22
   2   0   0   0   0   0   0   0   0  10   0   1 22
   7   0   0   0   0   0   0  10   0   0   0   1 22
   4   0   0   0   0  10   0   0   0   0   0   1 22
   9   0   0   0   0   0   0   0   0   0  10   1 22
   0   0   0   0   0   0   0   0   0   0   0   0 
